SCIP Status        : solving was interrupted [time limit reached]
Total Time         :    3600.01
  solving          :    3600.01
  presolving       :       0.50 (included in solving)
  reading          :       0.00
  copying          :       2.00 (45 #copies) (minimal 0.00, maximal 0.11, average 0.04)
Original Problem   :
  Problem name     : bbbenchmark/g05_100.7.cut
  Variables        : 101 (100 binary, 0 integer, 0 implicit integer, 1 continuous)
  Constraints      : 1 initial, 1 maximal
  Objective        : minimize, 1 non-zeros (abs.min = 1, abs.max = 1)
Presolved Problem  :
  Problem name     : t_bbbenchmark/g05_100.7.cut
  Variables        : 1952 (100 binary, 0 integer, 1839 implicit integer, 13 continuous)
  Constraints      : 1876 initial, 9572 maximal
  Objective        : minimize, 1 non-zeros (abs.min = 1, abs.max = 1)
  Nonzeros         : 8801 constraint, 202 clique table
Presolvers         :   ExecTime  SetupTime  Calls  FixedVars   AggrVars   ChgTypes  ChgBounds   AddHoles    DelCons    AddCons   ChgSides   ChgCoefs
  boundshift       :       0.00       0.00      0          0          0          0          0          0          0          0          0          0
  convertinttobin  :       0.00       0.00      0          0          0          0          0          0          0          0          0          0
  domcol           :       0.00       0.00      1          0          0          0          0          0          0          0          0          0
  dualagg          :       0.00       0.00      0          0          0          0          0          0          0          0          0          0
  dualcomp         :       0.00       0.00      1          0          0          0          0          0          0          0          0          0
  dualinfer        :       0.00       0.00      0          0          0          0          0          0          0          0          0          0
  dualsparsify     :       0.00       0.00      1          0          0          0          0          0          0          0          0          0
  gateextraction   :       0.00       0.00      0          0          0          0          0          0          0          0          0          0
  implics          :       0.00       0.00      2          0          0          0          0          0          0          0          0          0
  inttobinary      :       0.00       0.00      0          0          0          0          0          0          0          0          0          0
  qpkktref         :       0.00       0.00      0          0          0          0          0          0          0          0          0          0
  redvub           :       0.00       0.00      0          0          0          0          0          0          0          0          0          0
  sparsify         :       0.00       0.00      1          0          0          0          0          0          0          0          0          0
  stuffing         :       0.00       0.00      0          0          0          0          0          0          0          0          0          0
  trivial          :       0.00       0.00      4          0          0          0          0          0          0          0          0          0
  tworowbnd        :       0.00       0.00      0          0          0          0          0          0          0          0          0          0
  dualfix          :       0.00       0.00      4          0          0          0          0          0          0          0          0          0
  genvbounds       :       0.00       0.00      0          0          0          0          0          0          0          0          0          0
  probing          :       0.32       0.00      1          0          0          0          0          0          0          0          0          0
  pseudoobj        :       0.00       0.00      1          0          0          0          1          0          0          0          0          0
  symmetry         :       0.00       0.00      0          0          0          0          0          0          0          0          0          0
  vbounds          :       0.00       0.00      1          0          0          0          0          0          0          0          0          0
  varbound         :       0.00       0.00      2          0          0          0          0          0          0          0          0          0
  and              :       0.01       0.01      2          0          0          0          0          0          0          0          0          0
  linear           :       0.00       0.00      2          0          0          0          0          0          0          0          0          0
  logicor          :       0.00       0.00      0          0          0          0          0          0          0          0          0          0
  bounddisjunction :       0.00       0.00      0          0          0          0          0          0          0          0          0          0
  nonlinear        :       0.16       0.01      5          0          0          0          1          0          0       1875          0          0
  benders          :       0.00       0.00      0          0          0          0          0          0          0          0          0          0
  components       :       0.00       0.00      1          0          0          0          0          0          0          0          0          0
  root node        :          -          -      -          0          -          -         15          -          -          -          -          -
Constraints        :     Number  MaxNumber  #Separate #Propagate    #EnfoLP    #EnfoRelax  #EnfoPS    #Check   #ResProp    Cutoffs    DomReds       Cuts    Applied      Conss   Children
  benderslp        :          0          0          0          0      60164          0          0       4426          0          0          0          0          0          0          0
  integral         :          0          0          0          0      60164          0          0       4426          0          0       1314          0          0        988     118822
  varbound         :         12         12         92     494859          0          0          0         26          0          0      24763          0          0          0          0
  and              :       1839       1839      71208     536060          3          0          0         26     401739          5    1165174       2782       2690          0          0
  linear           :         25+        34         92     536089          3          0          0         24        599          3     196727          0          0          0          0
  logicor          :          0+      7499          0     110552          0          0          0          0        174        426         45          0          0          0          0
  bounddisjunction :          0+       450          0      36225          0          0          0          0          3         15          1          0          0          0          0
  benders          :          0          0          0          0          3          0          0         26          0          0          0          0          0          0          0
  countsols        :          0          0          0          0          3          0          0         26          0          0          0          0          0          0          0
  components       :          0          0          0          0          0          0          0          0          0          0          0          0          0          0          0
Constraint Timings :  TotalTime  SetupTime   Separate  Propagate     EnfoLP     EnfoPS     EnfoRelax   Check    ResProp    SB-Prop
  benderslp        :       0.13       0.00       0.00       0.00       0.12       0.00       0.00       0.01       0.00       0.00
  integral         :      53.26       0.00       0.00       0.00      53.26       0.00       0.00       0.00       0.00       0.00
  varbound         :       0.50       0.00       0.00       0.50       0.00       0.00       0.00       0.00       0.00       0.00
  and              :      77.56       0.01      49.59      27.00       0.00       0.00       0.00       0.00       0.36       0.60
  linear           :       2.76       0.00       0.03       2.64       0.00       0.00       0.00       0.00       0.03       0.06
  logicor          :       6.21       0.00       0.00       6.19       0.00       0.00       0.00       0.00       0.00       0.02
  bounddisjunction :       0.40       0.00       0.00       0.39       0.00       0.00       0.00       0.00       0.00       0.01
  benders          :       0.00       0.00       0.00       0.00       0.00       0.00       0.00       0.00       0.00       0.00
  countsols        :       0.00       0.00       0.00       0.00       0.00       0.00       0.00       0.00       0.00       0.00
  components       :       0.16       0.00       0.00       0.16       0.00       0.00       0.00       0.00       0.00       0.00
Propagators        : #Propagate   #ResProp    Cutoffs    DomReds
  dualfix          :          4          0          0          0
  genvbounds       :          0          0          0          0
  nlobbt           :          0          0          0          0
  obbt             :          0          0          0          0
  probing          :          0          0          0          0
  pseudoobj        :     267109          0          0         17
  redcost          :     143430          0          0      95363
  rootredcost      :         15          0          0          0
  symmetry         :          0          0          0          0
  vbounds          :      77588          0          0          0
Propagator Timings :  TotalTime  SetupTime   Presolve  Propagate    ResProp    SB-Prop
  dualfix          :       0.00       0.00       0.00       0.00       0.00       0.00
  genvbounds       :       0.35       0.00       0.00       0.34       0.00       0.01
  nlobbt           :       0.00       0.00       0.00       0.00       0.00       0.00
  obbt             :       0.00       0.00       0.00       0.00       0.00       0.00
  probing          :       0.32       0.00       0.32       0.00       0.00       0.00
  pseudoobj        :       0.56       0.00       0.00       0.55       0.00       0.01
  redcost          :       9.48       0.00       0.00       9.48       0.00       0.00
  rootredcost      :       0.49       0.00       0.00       0.49       0.00       0.00
  symmetry         :       0.27       0.00       0.00       0.27       0.00       0.00
  vbounds          :       0.39       0.00       0.00       0.38       0.00       0.01
Conflict Analysis  :       Time      Calls    Success    DomReds  Conflicts   Literals    Reconvs ReconvLits   Dualrays   Nonzeros   LP Iters   (pool size: [10000,10000])
  propagation      :       0.00        446        367          -        444       61.8          0        0.0          -          -          -
  infeasible LP    :       0.10         26         26          -       1112      151.9          0        0.0         50      174.3          0
  bound exceed. LP :      19.71       6395       5278          -     113354      105.8          0        0.0          0        0.0      41853
  strong branching :       0.00          0          0          -          0        0.0          0        0.0          -          -          0
  pseudo solution  :       0.00          0          0          -          0        0.0          0        0.0          -          -          -
  applied globally :       0.61          -          -          0      26393      115.1          -          -         50          -          -
  applied locally  :          -          -          -          0          0        0.0          -          -          0          -          -
Separators         :   ExecTime  SetupTime      Calls  RootCalls    Cutoffs    DomReds  FoundCuts ViaPoolAdd  DirectAdd    Applied ViaPoolApp  DirectApp      Conss
  cut pool         :       5.49          -      19934        121          -          -      38768    1401240          -          -          -          -          -    (maximal pool size:       2878)
  aggregation      :      10.55       0.00       4772         92          0          0         88         87          0          8          8          0          0
  > cmir           :          -          -          -          -          -          -          -         87          0          8          8          0          -
  > flowcover      :          -          -          -          -          -          -          -          0          0          0          0          0          -
  > knapsackcover  :          -          -          -          -          -          -          -          0          0          0          0          0          -
  cgmip            :       0.00       0.00          0          0          0          0          0          0          0          0          0          0          0
  clique           :       0.00       0.00         92         92          0          0          0          0          0          0          0          0          0
  closecuts        :       0.00       0.00          0          0          0          0          0          0          0          0          0          0          0
  convexproj       :       0.00       0.00          0          0          0          0          0          0          0          0          0          0          0
  disjunctive      :       0.00       0.00          0          0          0          0          0          0          0          0          0          0          0
  eccuts           :       0.00       0.00          0          0          0          0          0          0          0          0          0          0          0
  gauge            :       0.00       0.00          0          0          0          0          0          0          0          0          0          0          0
  gomory           :       0.00       0.00          0          0          0          0          0          0          0          0          0          0          0
  > gomorymi       :          -          -          -          -          -          -          -          0          0          0          0          0          -
  > strongcg       :          -          -          -          -          -          -          -          0          0          0          0          0          -
  impliedbounds    :       0.28       0.00       4772         92          0          0          4          0          0          0          0          0          0
  interlattice     :       0.51       0.00         60         60          0          0         60          0         60         60          0         60          0
  interminor       :       0.00       0.00          0          0          0          0          0          0          0          0          0          0          0
  intersub         :       0.00       0.00          0          0          0          0          0          0          0          0          0          0          0
  intobj           :       0.00       0.00          0          0          0          0          0          0          0          0          0          0          0
  mcf              :       0.00       0.00          1          1          0          0          0          0          0          0          0          0          0
  minor            :       0.00       0.00          0          0          0          0          0          0          0          0          0          0          0
  mixing           :       0.00       0.00       4772         92          0          0          0          0          0          0          0          0          0
  oddcycle         :       0.00       0.00          0          0          0          0          0          0          0          0          0          0          0
  rapidlearning    :       0.00       0.00          0          0          0          0          0          0          0          0          0          0          0
  rlt              :       0.00       0.00         10         10          0          0          0          0          0          0          0          0          0
  zerohalf         :      41.01       0.00       4279         20          0          0      38676    1401153          0     152302     152302          0          0
Cutselectors       :   ExecTime  SetupTime      Calls  RootCalls   Selected     Forced   Filtered  RootSelec   RootForc   RootFilt 
  hybrid           :       1.40       0.00      13562         90     155060          0    1249022        270          0          5
Pricers            :   ExecTime  SetupTime      Calls       Vars
  problem variables:       0.00          -          0          0
Branching Rules    :   ExecTime  SetupTime   BranchLP  BranchExt   BranchPS    Cutoffs    DomReds       Cuts      Conss   Children
  allfullstrong    :       0.00       0.00          0          0          0          0          0          0          0          0
  cloud            :       0.00       0.00          0          0          0          0          0          0          0          0
  distribution     :       0.00       0.00          0          0          0          0          0          0          0          0
  fullstrong       :       0.00       0.00          0          0          0          0          0          0          0          0
  inference        :       0.00       0.00          0          0          0          0          0          0          0          0
  leastinf         :       0.00       0.00          0          0          0          0          0          0          0          0
  lookahead        :       0.00       0.00          0          0          0          0          0          0          0          0
  mostinf          :       0.00       0.00          0          0          0          0          0          0          0          0
  multaggr         :       0.00       0.00          0          0          0          0          0          0          0          0
  nodereopt        :       0.00       0.00          0          0          0          0          0          0          0          0
  pscost           :       0.00       0.00          0          0          0          0          0          0          0          0
  random           :       0.00       0.00          0          0          0          0          0          0          0          0
  relpscost        :      53.11       0.00      60161          0          0          0       1314          0        989     118822
  vanillafullstrong:       0.00       0.00          0          0          0          0          0          0          0          0
Primal Heuristics  :   ExecTime  SetupTime      Calls      Found       Best
  LP solutions     :       0.00          -          -          3          3
  relax solutions  :       0.00          -          -          0          0
  pseudo solutions :       0.00          -          -          0          0
  strong branching :       0.01          -          -          0          0
  actconsdiving    :       0.00       0.00          0          0          0
  adaptivediving   :       4.16       0.00         28          0          0
  alns             :       3.00       0.00         20          5          5
  bound            :       0.00       0.00          0          0          0
  clique           :       0.02       0.00          1          0          0
  coefdiving       :       0.00       0.00          0          0          0
  completesol      :       0.00       0.00          0          0          0
  conflictdiving   :     109.88       0.00        833          0          0
  crossover        :       6.72       0.00          6          1          1
  dins             :       0.00       0.00          0          0          0
  distributiondivin:      71.27       0.00        291          0          0
  dps              :       0.00       0.00          0          0          0
  dualval          :       0.00       0.00          0          0          0
  farkasdiving     :       0.01       0.00          0          0          0
  feaspump         :       0.16       0.00          1          1          1
  fixandinfer      :       0.00       0.00          0          0          0
  fracdiving       :      56.10       0.00        420          0          0
  gins             :       0.08       0.00          0          0          0
  guideddiving     :      56.59       0.00        390          0          0
  indicator        :       0.07       0.00          0          0          0
  indicatordiving  :       0.00       0.00          0          0          0
  intdiving        :       0.00       0.00          0          0          0
  intshifting      :       0.55       0.00         60          0          0
  linesearchdiving :      54.15       0.00        419          0          0
  localbranching   :       0.00       0.00          0          0          0
  locks            :       0.01       0.00          1          0          0
  lpface           :       0.08       0.00          0          0          0
  mpec             :     493.33       0.00         11          4          4
  multistart       :       0.00       0.00          0          0          0
  mutation         :       0.00       0.00          0          0          0
  nlpdiving        :      25.01       0.00          6          0          0
  objpscostdiving  :      64.19       0.00         55          3          1
  octane           :       0.00       0.00          0          0          0
  ofins            :       0.03       0.00          0          0          0
  oneopt           :       0.10       0.00         20          0          0
  padm             :       0.00       0.00          0          0          0
  proximity        :       0.00       0.00          0          0          0
  pscostdiving     :      55.89       0.00        346          2          2
  randrounding     :       0.74       0.00       4396          0          0
  rens             :       0.00       0.00          0          0          0
  reoptsols        :       0.00       0.00          0          0          0
  repair           :       0.00       0.00          0          0          0
  rins             :       4.43       0.00         18          0          0
  rootsoldiving    :      36.35       0.00         25          0          0
  rounding         :       1.07       0.00       3738          0          0
  shiftandpropagate:       0.00       0.00          0          0          0
  shifting         :      38.80       0.00       8480          4          3
  simplerounding   :       0.13       0.00          0          0          0
  subnlp           :     120.44       0.00          0          0          0
  trivial          :       0.01       0.00          2          2          2
  trivialnegation  :       0.00       0.00          0          0          0
  trustregion      :       0.00       0.00          0          0          0
  trysol           :       0.08       0.00          0          0          0
  twoopt           :       0.00       0.00          0          0          0
  undercover       :       1.52       0.00          1          1          1
  vbounds          :       0.00       0.00          0          0          0
  veclendiving     :      55.10       0.00        391          0          0
  zeroobj          :       0.00       0.00          0          0          0
  zirounding       :       0.44       0.00       1000          0          0
  other solutions  :          -          -          -          0          -
Diving (single)    :      Calls      Nodes   LP Iters Backtracks  Conflicts   MinDepth   MaxDepth   AvgDepth  RoundSols  NLeafSols  MinSolDpt  MaxSolDpt  AvgSolDpt
  actconsdiving    :          0          -          -          -          -          -          -          -          -          -          -          -          -
  coefdiving       :          0          -          -          -          -          -          -          -          -          -          -          -          -
  conflictdiving   :        833      34327    1027628        955      37842         52         86       62.7          0          -          -          -          -
  distributiondivin:        291      10645     530198        328       4931         47         68       55.1          0          -          -          -          -
  farkasdiving     :          0          -          -          -          -          -          -          -          -          -          -          -          -
  fracdiving       :        420      42223     510890        177       2515         53        466      120.5          0          -          -          -          -
  guideddiving     :        390      37617     525551        173       5203         54        311      116.1          0          -          -          -          -
  indicatordiving  :          0          -          -          -          -          -          -          -          -          -          -          -          -
  linesearchdiving :        419      16741     515639        391      21665         46         91       60.3          0          -          -          -          -
  pscostdiving     :        346      15137     556390        354      11467         54         79       62.6          0          2         58         79       68.5
  veclendiving     :        391      16950     525747        380      26302         51         91       61.6          0          -          -          -          -
Diving (adaptive)  :      Calls      Nodes   LP Iters Backtracks  Conflicts   MinDepth   MaxDepth   AvgDepth  RoundSols  NLeafSols  MinSolDpt  MaxSolDpt  AvgSolDpt
  actconsdiving    :          2         89       3372          4         27         57         60       58.5          0          -          -          -          -
  coefdiving       :         14        651      17594          7        695         57         84       64.4          0          -          -          -          -
  conflictdiving   :          0          -          -          -          -          -          -          -          -          -          -          -          -
  distributiondivin:          0          -          -          -          -          -          -          -          -          -          -          -          -
  farkasdiving     :          0          -          -          -          -          -          -          -          -          -          -          -          -
  fracdiving       :          0          -          -          -          -          -          -          -          -          -          -          -          -
  guideddiving     :          1        114       1633          0         14        125        125      125.0          0          -          -          -          -
  indicatordiving  :          0          -          -          -          -          -          -          -          -          -          -          -          -
  linesearchdiving :          6        212       8223          4        237         50         71       60.0          0          -          -          -          -
  pscostdiving     :          2         87       3339          2         55         63         63       63.0          0          -          -          -          -
  veclendiving     :          3        130       4597          3        234         57         65       60.0          0          -          -          -          -
Neighborhoods      :      Calls  SetupTime  SolveTime SolveNodes       Sols       Best       Exp3  EpsGreedy        UCB TgtFixRate  Opt  Inf Node Stal  Sol  Usr Othr Actv
  rens             :          3       0.23       0.05          3          0          0    0.00000   -1.00000    0.53802      0.437    0    3    0    0    0    0    0    1
  rins             :          2       0.10       0.13         88          0          0    0.00000   -1.00000    0.45638      0.850    0    1    0    1    0    0    0    1
  mutation         :          5       0.30       0.94        649          4          4    0.00000   -1.00000    0.53723      0.684    1    1    0    2    1    0    0    1
  localbranching   :          2       0.07       0.05         68          0          0    0.00000   -1.00000    0.46368      0.850    0    1    0    1    0    0    0    1
  crossover        :          2       0.19       0.02         30          0          0    0.00000   -1.00000    0.53378      0.550    0    2    0    0    0    0    0    1
  proximity        :          2       0.18       0.16        102          0          0    0.00000   -1.00000    0.45778      0.850    0    1    0    1    0    0    0    1
  zeroobjective    :          3       0.20       0.13        218          1          1    0.00000   -1.00000    0.50777      0.900    1    0    0    2    0    0    0    1
  dins             :          1       0.04       0.03         47          0          0    0.00000   -1.00000    0.52279      0.700    0    1    0    0    0    0    0    1
  trustregion      :          0       0.00       0.00          0          0          0    0.00000   -1.00000    1.00000      0.900    0    0    0    0    0    0    0    0
Expressions        :   #IntEval  IntEvalTi   #RevProp  RevPropTi    DomReds    Cutoffs  #Estimate  EstimTime  Branching  #Simplify SimplifyTi Simplified
  pow              :          0       0.00          0       0.00          0          0          0       0.00          0          0       0.00          0
  prod             :       9900       0.00          0       0.00          0          0          0       0.00          0       6789       0.01          0
  sum              :          8       0.00          2       0.00          0          0          0       0.00          0          3       0.03          2
  var              :       6665       0.00          0       0.00          0          0          0       0.00          0      15732       0.00          0
  varidx           :          0       0.00          0       0.00          0          0          0       0.00          0          0       0.00          0
LP                 :       Time      Calls Iterations  Iter/call   Iter/sec  Time-0-It Calls-0-It    ItLimit
  primal LP        :      88.16       8619          0       0.00       0.00      88.14       8619
  dual LP          :    1933.02     120136   10233012      92.53    5293.80       4.79       9539
  lex dual LP      :       0.00          0          0       0.00          -
  barrier LP       :       0.00          0          0       0.00          -       0.00          0
  resolve instable :       0.00          0          0       0.00          -
  diving/probing LP:     487.09      15426    4770111     309.23    9793.08
  strong branching :      27.83       2255     243015     107.77    8732.12          -          -        130
    (at root node) :          -         19       3641     191.63          -
  conflict analysis:       7.29       4274      41853       9.79    5741.15
NLP relaxation     :
  solve time       :      24.91 (11 calls)
  convexity        :  nonconvex (37 linear rows, 0 convex ineq., 0 nonconvex ineq., 1839 nonlinear eq. or two-sided ineq.)
NLP Solvers        :  #Problems  ProblemTi    #Solves  SolveTime      #Iter  Time/Iter      #Okay #TimeLimit #IterLimit #LObjLimit #Interrupt  #NumError #EvalError  #OutOfMem #LicenseEr #OtherTerm   #GlobOpt    #LocOpt  #Feasible #LocInfeas #GlobInfea #Unbounded   #Unknown
  ipopt            :         12       5.46         38     524.95       1728       0.30         36          0          2          0          0          0          0          0          0          0          0         23          0          8          0          0          7
B&B Tree           :
  number of runs   :          1
  nodes            :      96305 (59411 internal, 36894 leaves)
  feasible leaves  :          3
  infeas. leaves   :         17
  objective leaves :      36873
  nodes (total)    :      96305 (59411 internal, 36894 leaves)
  nodes left       :      22427
  max depth        :         60
  max depth (total):         60
  backtracks       :      19102 (19.8%)
  early backtracks :          0 (0.0%)
  nodes exc. ref.  :          0 (0.0%)
  delayed cutoffs  :         13
  repropagations   :       1277 (79 domain reductions, 3 cutoffs)
  avg switch length:       5.14
  switching time   :     109.18
Estim. Tree Size   :     192792
Estimation Tree    : 118823 nodes (96396 visited, 59411 internal, 36985 leaves, 22427 open), weight: 0.0000 completed 0.1102
Estimations        :      estim      value      trend resolution     smooth
  wbe              : 522005315832302          -          -          -          -
  tree-profile     :         -1          -          -          -          -
  gap              :    1911805    0.68484    0.00002         64    1874136
  tree-weight      :     192792    0.00000    0.00000         64     192470
  leaf-frequency   :     694095    0.38367    0.00002         64     726236
  ssg              :    5046810    0.82600   -0.00002         64    4971429
  open-nodes       :     192792 22427.00000   13.29342         64     192470
Root Node          :
  First LP value   : -1.00000000000000e+00
  First LP Iters   :       1752 (10950.00 Iter/sec)
  First LP Time    :       0.16
  Final Dual Bound : -9.47373737373738e-01
  Final Root Iters :       3287
  Root LP Estimate : -4.00477352431705e-01
Solution           :
  Solutions found  :         26 (23 improvements)
  First Solution   : +1.00000000000000e+05   (in run 1, after 0 nodes, 0.04 seconds, depth 0, found by <trivial>)
  Gap First Sol.   :   infinite
  Gap Last Sol.    :      49.01 %
  Primal Bound     : -5.70909090909089e-01   (in run 1, after 54551 nodes, 2077.69 seconds, depth 11, found by <crossover>)
  Dual Bound       : -8.33638189311777e-01
  Gap              :      46.02 %
Integrals          :      Total       Avg%
  primal-dual      :  124964.11      34.71
  primal-ref       :          -          - (not evaluated)
  dual-ref         :          -          - (not evaluated)
